WARNING: for repeatability, setting FPU to use double precision
============================[ Problem Statistics ]=============================
|                                                                             |
|  Number of variables:           100                                         |
|  Number of clauses:             449                                         |
|  Parse time:                   0.00 s                                       |
|  Eliminated clauses:           0.00 Mb                                      |
|  Simplification time:          0.00 s                                       |
|                                                                             |
============================[ Search Statistics ]==============================
| Conflicts |          ORIGINAL         |          LEARNT          | Progress |
|           |    Vars  Clauses Literals |    Limit  Clauses Lit/Cl |          |
===============================================================================
|       100 |      98      447     1353 |      163      100      7 |  0.010 % |
===============================================================================
restarts              : 2
conflicts             : 199            (63660 /sec)
decisions             : 256            (0.00 % random) (81894 /sec)
propagations          : 5141           (1644594 /sec)
conflict literals     : 1390           (17.46 % deleted)
Memory used           : 13.00 MB
CPU time              : 0.003126 s

SATISFIABLE
